
Gurobi 9.1.2 (win64) logging started Tue Dec  7 10:32:19 2021

Gurobi Optimizer version 9.1.2 build v9.1.2rc0 (win64)
Thread count: 8 physical cores, 8 logical processors, using up to 8 threads
Optimize a model with 1 rows, 69 columns and 68 nonzeros
Model fingerprint: 0x4e416773
Variable types: 1 continuous, 68 integer (68 binary)
Coefficient statistics:
  Matrix range     [1e+00, 1e+01]
  Objective range  [1e+00, 1e+00]
  Bounds range     [4e+00, 4e+00]
  RHS range        [1e+01, 1e+01]
Found heuristic solution: objective -3.8185655

Explored 0 nodes (0 simplex iterations) in 14.20 seconds
Thread count was 1 (of 8 available processors)

Solution count 1: -3.81857 
No other solutions better than -3.81857

Optimal solution found (tolerance 1.00e-04)
Best objective -3.818565541060e+00, best bound -3.818565541060e+00, gap 0.0000%

User-callback calls 25, time in user-callback 17.89 sec
